
Gurobi 9.1.2 (win64) logging started Sat Sep  4 11:48:47 2021

Changed value of parameter LogFile to ../results/logs/log_samuel_kroger_2021_09_04_11_46_16.csv_5_250.log
   Prev:   Default: 
Changed value of parameter method to 3
   Prev: -1  Min: -1  Max: 5  Default: -1
